; redis-py :: corpus-study/repo_src/redis-py/redis/asyncio/client.py :: LOCK 'Redis._usage_lock' :: naive encoding (verdict: sat)
; Generated by snf-pipeline (encoder.py) -- run with any
; SMT-LIB2-compliant solver, e.g. `z3 redis-py__corpus-study_repo_src_redis-py_redis_asyncio_client.py__Redis._usage_lock__naive.smt2`
; benchmark generated from python API
(set-info :status unknown)
(declare-fun holds_1 () Bool)
(declare-fun holds_0 () Bool)
(assert
 (or (and holds_0 holds_1)))
(check-sat)
